# H brittle 

log		TensionColu.lammps
shell		rm log.lammps

variable	T equal 0.1
variable	ele string Cu 
units           metal
boundary       	p p p
atom_style      atomic
lattice        	fcc 3.615 #orient x 1 1 -2 orient y 1 1 1 orient z 1 -1 0 
region          box block -10 10 -10 10 -10 10
create_box      1 box
create_atoms    1 box

pair_style      eam/alloy
pair_coeff      * * ./Cu_Mishin1.eam.alloy ${ele}
neighbor        0.2 bin
neigh_modify    delay 0 every 1 check yes

thermo          100
thermo_style    custom step temp pxx pyy pzz pxy pxz pyz pe lx ly lz

velocity	all create $T 4928459 rot yes dist gaussian
fix		1 all nvt temp $T $T 0.1
#fix		1 all npt temp $T $T 0.1 x 1.0 1.0 1.0 y 1.0 1.0 1.0 z 1.0 1.0 1.0
compute         1 all pe/atom
compute         2 all centro/atom fcc 

#shell          mkdir Restart1
#restart	1000 ./Restart1/tmp.restart

#shell		mkdir result
#dump_modify     1 element ${ele} thresh c_2 > 1.0
dump            1 all custom/mpiio 50 result/dump.* id type x y z xs ys zs xu yu zu xsu ysu zsu ix iy iz vx vy vz fx fy fz c_1
run	        10000

